letting initialStacks = [10, 24, 31, 36, 37, 32, 11, 51, 12, 26, 15, 49, 21, 48, 3, 2, 8, 16, 45, 44, 46, 34, 19, 43, 50, 28, 47, 35, 17, 14, 40, 42, 6, 27, 23, 41, 5, 33, 39, 13, 9, 1, 25, 22, 20, 7, 30, 4, 18, 38, 29]
